<number of tasks>
148

<cycle time>
125

<task times>
1 16
2 30
3 7
4 47
5 29
6 8
7 39
8 37
9 32
10 29
11 17
12 11
13 32
14 15
15 53
16 53
17 8
18 24
19 24
20 8
21 7
22 8
23 14
24 13
25 10
26 25
27 11
28 25
29 11
30 29
31 25
32 10
33 14
34 41
35 42
36 47
37 7
38 80
39 7
40 41
41 47
42 16
43 32
44 66
45 80
46 7
47 41
48 13
49 47
50 33
51 34
52 11
53 18
54 25
55 7
56 28
57 12
58 52
59 14
60 3
61 3
62 8
63 16
64 33
65 8
66 18
67 10
68 14
69 28
70 11
71 18
72 25
73 40
74 40
75 1
76 5
77 28
78 8
79 81
80 7
81 26
82 10
83 21
84 26
85 20
86 21
87 47
88 23
89 13
90 19
91 15
92 35
93 26
94 46
95 20
96 31
97 19
98 34
99 51
100 39
101 30
102 26
103 13
104 45
105 58
106 28
107 8
108 83
109 40
110 34
111 23
112 62
113 11
114 19
115 14
116 31
117 32
118 26
119 55
120 31
121 32
122 26
123 19
124 14
125 19
126 48
127 55
128 8
129 11
130 27
131 18
132 36
133 23
134 20
135 46
136 64
137 22
138 15
139 34
140 22
141 51
142 48
143 64
144 70
145 37
146 64
147 78
148 78

<task process alternatives>
1: 13,15 ; 20,8
2: 24,15 ; 36,8
3: 6,15 ; 9,8
4: 38,15 ; 57,8
5: 24,15 ; 35,8
6: 7,15 ; 10,8
7: 32,15 ; 47,8
8: 30,15 ; 45,8
9: 26,15 ; 39,8
10: 24,15 ; 35,8
11: 14,15 ; 21,8
12: 9,15 ; 14,8
13: 26,15 ; 39,8
14: 12,15 ; 18,8
15: 43,15 ; 64,8
16: 43,15 ; 64,8
17: 7,15 ; 10,8
18: 20,15 ; 29,8
19: 20,15 ; 29,8
20: 7,15 ; 10,8
21: 6,15 ; 9,8
22: 7,15 ; 10,8
23: 12,15 ; 17,8
24: 11,15 ; 16,8
25: 8,15 ; 12,8
26: 20,15 ; 30,8
27: 9,15 ; 14,8
28: 20,15 ; 30,8
29: 9,15 ; 14,8
30: 24,15 ; 35,8
31: 20,15 ; 30,8
32: 8,15 ; 12,8
33: 12,15 ; 17,8
34: 33,15 ; 50,8
35: 34,15 ; 51,8
36: 38,15 ; 57,8
37: 6,15 ; 9,8
38: 64,15 ; 96,8
39: 6,15 ; 9,8
40: 33,15 ; 50,8
41: 38,15 ; 57,8
42: 13,15 ; 20,8
43: 26,15 ; 39,8
44: 53,15 ; 80,8
45: 64,15 ; 96,8
46: 6,15 ; 9,8
47: 33,15 ; 50,8
48: 11,15 ; 16,8
49: 38,15 ; 57,8
50: 27,15 ; 40,8
51: 28,15 ; 41,8
52: 9,15 ; 14,8
53: 15,15 ; 22,8
54: 20,15 ; 30,8
55: 6,15 ; 9,8
56: 23,15 ; 34,8
57: 10,15 ; 15,8
58: 42,15 ; 63,8
59: 12,15 ; 17,8
60: 3,15 ; 4,8
61: 3,15 ; 4,8
62: 7,15 ; 10,8
63: 13,15 ; 20,8
64: 27,15 ; 40,8
65: 7,15 ; 10,8
66: 15,15 ; 22,8
67: 8,15 ; 12,8
68: 12,15 ; 17,8
69: 23,15 ; 34,8
70: 9,15 ; 14,8
71: 15,15 ; 22,8
72: 20,15 ; 30,8
73: 32,15 ; 48,8
74: 32,15 ; 48,8
75: 1,15 ; 2,8
76: 4,15 ; 6,8
77: 23,15 ; 34,8
78: 7,15 ; 10,8
79: 65,15 ; 98,8
80: 6,15 ; 9,8
81: 21,15 ; 32,8
82: 8,15 ; 12,8
83: 17,15 ; 26,8
84: 21,15 ; 32,8
85: 16,15 ; 24,8
86: 17,15 ; 26,8
87: 38,15 ; 57,8
88: 19,15 ; 28,8
89: 11,15 ; 16,8
90: 16,15 ; 23,8
91: 12,15 ; 18,8
92: 28,15 ; 42,8
93: 21,15 ; 32,8
94: 37,15 ; 56,8
95: 16,15 ; 24,8
96: 25,15 ; 38,8
97: 16,15 ; 23,8
98: 28,15 ; 41,8
99: 41,15 ; 62,8
100: 32,15 ; 47,8
101: 24,15 ; 36,8
102: 21,15 ; 32,8
103: 11,15 ; 16,8
104: 36,15 ; 54,8
105: 47,15 ; 70,8
106: 23,15 ; 34,8
107: 7,15 ; 10,8
108: 67,15 ; 100,8
109: 32,15 ; 48,8
110: 28,15 ; 41,8
111: 19,15 ; 28,8
112: 50,15 ; 75,8
113: 9,15 ; 14,8
114: 16,15 ; 23,8
115: 12,15 ; 17,8
116: 25,15 ; 38,8
117: 26,15 ; 39,8
118: 21,15 ; 32,8
119: 44,15 ; 66,8
120: 25,15 ; 38,8
121: 26,15 ; 39,8
122: 21,15 ; 32,8
123: 16,15 ; 23,8
124: 12,15 ; 17,8
125: 16,15 ; 23,8
126: 39,15 ; 58,8
127: 44,15 ; 66,8
128: 7,15 ; 10,8
129: 9,15 ; 14,8
130: 22,15 ; 33,8
131: 15,15 ; 22,8
132: 29,15 ; 44,8
133: 19,15 ; 28,8
134: 16,15 ; 24,8
135: 37,15 ; 56,8
136: 52,15 ; 77,8
137: 18,15 ; 27,8
138: 12,15 ; 18,8
139: 28,15 ; 41,8
140: 18,15 ; 27,8
141: 41,15 ; 62,8
142: 39,15 ; 58,8
143: 52,15 ; 77,8
144: 56,15 ; 84,8
145: 30,15 ; 45,8
146: 52,15 ; 77,8
147: 63,15 ; 94,8
148: 63,15 ; 94,8

<incompatible tasks>
47,34
20,128
103,22
68,100
101,145
123,39
137,143
55,108
11,119
138,23
31,122
9,118
113,10
32,136
105,37
108,115
61,139
53,129
48,125
116,85
123,72
11,123

<precedence relations>
67,68
96,104
98,101
99,100
73,90
22,26
23,25
40,41
58,86
100,101
103,127
75,90
24,26
64,71
3,6
20,22
59,75
142,146
14,15
22,28
23,27
74,75
129,130
58,88
106,107
1,8
132,135
111,112
47,48
24,28
42,43
145,147
107,108
54,72
134,135
20,24
142,148
118,126
38,39
54,90
5,14
144,145
80,81
122,126
40,54
27,29
16,17
7,14
72,134
79,85
25,29
81,82
108,109
101,103
12,13
73,96
77,78
21,25
9,14
114,115
109,110
45,46
33,35
50,51
82,83
54,76
56,73
73,89
142,143
29,31
46,47
22,25
21,27
83,84
138,139
1,5
19,20
113,128
115,125
24,25
79,80
47,54
65,99
116,117
68,95
3,5
20,21
102,127
52,53
22,27
92,135
23,26
112,113
84,106
130,137
1,7
79,146
64,72
32,34
3,7
20,23
54,89
14,16
86,87
141,142
23,28
113,114
123,124
17,18
113,123
54,55
47,49
64,65
63,67
145,148
26,29
4,8
95,101
113,116
34,36
10,14
28,29
120,121
21,26
61,62
121,122
8,10
2,3
62,63
117,118
79,143
24,27
3,4
18,20
35,36
51,53
55,133
21,28
105,119
133,135
142,147
113,120
1,6
36,37
37,45
128,129
15,17
124,125
73,86
101,102
78,82
69,79
90,111
65,66
37,38
139,140
68,98
43,44
70,71
73,88
135,136
39,40
130,131
17,19
31,36
51,69
59,89
11,12
40,48
66,67
76,77
91,105
57,82
6,9
75,97

<number of task attributes>
3

<task attribute values>
1,1:70
1,2:36
1,3:61
2,1:6
2,2:31
2,3:38
3,2:14
4,1:69
4,2:21
4,3:21
5,1:91
5,2:58
5,3:21
6,1:25
6,2:22
6,3:52
7,1:7
7,2:15
7,3:86
8,1:4
8,2:27
8,3:17
9,1:45
9,2:69
9,3:3
10,1:8
10,2:13
10,3:22
11,1:75
11,2:41
11,3:77
12,1:25
12,2:45
12,3:53
13,1:81
13,2:87
13,3:95
14,2:24
14,3:40
15,1:84
15,2:1
15,3:78
16,1:8
16,2:5
16,3:12
17,1:6
17,2:62
17,3:9
18,1:97
18,2:68
18,3:31
19,1:1
19,2:13
19,3:68
20,2:1
21,1:5
21,2:57
21,3:20
22,1:29
22,2:54
22,3:51
23,1:32
23,2:24
23,3:85
24,1:94
24,2:24
24,3:26
25,1:19
25,2:32
26,1:42
26,2:14
26,3:36
27,2:17
27,3:12
28,1:42
28,2:83
28,3:13
29,1:4
29,2:7
29,3:10
30,1:85
30,2:48
30,3:19
31,1:1
31,2:2
32,2:11
32,3:22
33,1:1
34,1:14
34,3:5
35,1:94
35,2:24
35,3:87
36,1:52
36,2:21
36,3:12
37,1:21
37,2:6
37,3:42
38,1:37
38,2:62
38,3:48
39,1:51
39,2:35
39,3:51
40,1:71
40,2:77
40,3:93
41,1:6
41,2:16
41,3:55
42,1:3
42,2:49
42,3:5
43,1:49
43,2:24
44,1:89
44,2:36
44,3:74
45,1:11
45,2:30
45,3:29
46,2:10
47,1:3
47,2:10
47,3:3
48,1:53
48,2:66
48,3:3
49,1:4
49,2:18
49,3:2
50,1:1
50,2:5
50,3:4
51,2:18
51,3:3
52,2:25
53,1:34
53,2:25
53,3:18
54,1:10
55,1:14
55,2:9
55,3:56
56,1:8
56,2:20
56,3:8
57,1:71
57,2:74
57,3:51
58,2:3
58,3:8
59,2:3
60,1:60
60,2:84
60,3:62
61,1:44
61,2:11
61,3:3
63,1:8
63,2:29
63,3:15
64,1:1
64,2:15
66,1:2
66,2:19
66,3:5
67,3:1
69,2:4
69,3:30
70,1:7
70,2:2
70,3:3
71,1:3
72,1:47
72,2:40
72,3:94
73,2:19
73,3:2
75,2:3
76,1:5
76,2:2
76,3:1
77,1:10
77,2:24
77,3:30
78,1:14
78,2:57
78,3:5
79,1:4
79,2:38
79,3:30
81,1:44
81,2:1
82,1:10
83,1:7
83,2:47
83,3:12
84,1:35
84,2:93
84,3:38
85,1:76
85,2:58
85,3:95
86,2:3
86,3:1
87,1:54
87,2:59
87,3:21
88,1:21
88,2:12
88,3:2
89,1:21
89,2:78
89,3:92
90,2:3
90,3:13
91,1:69
91,2:79
91,3:92
93,1:2
93,2:15
94,1:15
94,2:11
94,3:6
95,1:1
95,2:4
97,1:16
97,2:28
97,3:40
98,1:23
98,2:10
99,1:14
99,2:1
99,3:11
100,1:1
101,1:4
101,2:1
101,3:6
102,1:3
102,2:16
102,3:16
104,1:48
104,2:8
104,3:94
105,1:38
105,2:75
105,3:37
106,1:33
106,2:24
107,1:52
107,2:24
107,3:45
108,1:28
108,2:96
108,3:99
109,1:41
110,1:2
110,2:18
110,3:16
111,1:1
111,2:1
111,3:10
112,1:28
112,2:2
113,1:60
113,2:35
113,3:6
114,1:11
114,2:15
114,3:76
115,1:18
115,3:2
116,1:9
116,2:1
116,3:45
117,1:3
117,2:6
118,1:17
118,2:61
119,1:3
119,3:5
120,1:36
120,2:1
120,3:14
121,1:12
121,2:1
121,3:1
122,1:1
122,2:3
123,2:1
123,3:3
124,1:3
124,2:1
126,1:48
126,2:17
126,3:4
127,1:19
127,2:4
127,3:13
129,2:3
129,3:2
130,2:6
131,2:5
132,1:13
132,2:4
132,3:1
133,1:19
133,2:31
133,3:10
135,1:81
135,2:51
135,3:12
136,1:11
136,2:2
137,2:2
137,3:2
139,1:1
139,2:1
139,3:43
141,1:1
141,2:3
142,1:5
142,3:7
143,1:20
143,2:6
143,3:7
144,1:21
144,2:15
145,1:10
145,3:2
146,1:21
146,2:2
147,1:3
147,2:17
147,3:66
148,1:41
148,2:51
148,3:79

<attribute bounds per station>
1:100
2:100
3:100

<linked tasks>
7,9
23,73
24,69
27,31
27,65
31,92
32,69
46,98
86,138
114,123

<optimal SALBP-1 value>
34

<rand seed>
236278236

<end>
